Grasp exp. instance_n_25_m_5_id_3.lp tipoLifted 0 szPool 5 nIteration 100 alpha 0.4 
Academic license - for non-commercial use only
Read LP format model from file ../input/instancesGenerated/instance_n_25_m_5_id_3.lp
Reading time = 0.00 seconds
: 5 rows, 25 columns, 125 nonzeros
Optimize a model with 5 rows, 25 columns and 125 nonzeros
Variable types: 0 continuous, 25 integer (25 binary)
Coefficient statistics:
  Matrix range     [1e+00, 1e+01]
  Objective range  [2e+00, 1e+01]
  Bounds range     [1e+00, 1e+00]
  RHS range        [6e+01, 8e+01]
Found heuristic solution: objective 77.0000000

Explored 0 nodes (0 simplex iterations) in 0.00 seconds
Thread count was 1 (of 8 available processors)

Solution count 1: 77 
No other solutions better than 0

Solution limit reached
Best objective 7.700000000000e+01, best bound -, gap -
C_1:	 3.00 x_1  = 0.000000 + 6.00 x_2  = 1.000000 + 5.00 x_3  = 1.000000 + 7.00 x_4  = 0.000000 + 5.00 x_5  = 0.000000 + 7.00 x_6  = 1.000000 + 5.00 x_7  = 1.000000 + 6.00 x_8  = 0.000000 + 2.00 x_9  = 1.000000 + 10.00 x_10  = 0.200000 + 10.00 x_11  = 0.000000 + 8.00 x_12  = 0.000000 + 9.00 x_13  = 0.000000 + 5.00 x_14  = 1.000000 + 2.00 x_15  = 0.500000 + 9.00 x_16  = 1.000000 + 8.00 x_17  = 1.000000 + 9.00 x_18  = 0.000000 + 8.00 x_19  = 0.500000 + 5.00 x_20  = 1.000000 + 4.00 x_21  = 0.000000 + 7.00 x_22  = 1.000000 + 4.00 x_23  = 0.000000 + 6.00 x_24  = 1.000000 + 5.00 x_25  = 1.000000 <= 77.00
C_2:	 10.00 x_1  = 0.000000 + 10.00 x_2  = 1.000000 + 6.00 x_3  = 1.000000 + 4.00 x_4  = 0.000000 + 8.00 x_5  = 0.000000 + 5.00 x_6  = 1.000000 + 6.00 x_7  = 1.000000 + 5.00 x_8  = 0.000000 + 1.00 x_9  = 1.000000 + 5.00 x_10  = 0.200000 + 2.00 x_11  = 0.000000 + 7.00 x_12  = 0.000000 + 9.00 x_13  = 0.000000 + 7.00 x_14  = 1.000000 + 8.00 x_15  = 0.500000 + 8.00 x_16  = 1.000000 + 6.00 x_17  = 1.000000 + 8.00 x_18  = 0.000000 + 8.00 x_19  = 0.500000 + 2.00 x_20  = 1.000000 + 9.00 x_21  = 0.000000 + 8.00 x_22  = 1.000000 + 9.00 x_23  = 0.000000 + 7.00 x_24  = 1.000000 + 7.00 x_25  = 1.000000 <= 82.00
C_3:	 5.00 x_1  = 0.000000 + 3.00 x_2  = 1.000000 + 3.00 x_3  = 1.000000 + 9.00 x_4  = 0.000000 + 8.00 x_5  = 0.000000 + 8.00 x_6  = 1.000000 + 10.00 x_7  = 1.000000 + 9.00 x_8  = 0.000000 + 5.00 x_9  = 1.000000 + 3.00 x_10  = 0.200000 + 9.00 x_11  = 0.000000 + 10.00 x_12  = 0.000000 + 10.00 x_13  = 0.000000 + 3.00 x_14  = 1.000000 + 10.00 x_15  = 0.500000 + 6.00 x_16  = 1.000000 + 4.00 x_17  = 1.000000 + 9.00 x_18  = 0.000000 + 6.00 x_19  = 0.500000 + 1.00 x_20  = 1.000000 + 8.00 x_21  = 0.000000 + 5.00 x_22  = 1.000000 + 8.00 x_23  = 0.000000 + 5.00 x_24  = 1.000000 + 2.00 x_25  = 1.000000 <= 79.00
C_4:	 10.00 x_1  = 0.000000 + 4.00 x_2  = 1.000000 + 2.00 x_3  = 1.000000 + 8.00 x_4  = 0.000000 + 2.00 x_5  = 0.000000 + 8.00 x_6  = 1.000000 + 3.00 x_7  = 1.000000 + 4.00 x_8  = 0.000000 + 3.00 x_9  = 1.000000 + 3.00 x_10  = 0.200000 + 3.00 x_11  = 0.000000 + 10.00 x_12  = 0.000000 + 2.00 x_13  = 0.000000 + 4.00 x_14  = 1.000000 + 6.00 x_15  = 0.500000 + 6.00 x_16  = 1.000000 + 2.00 x_17  = 1.000000 + 5.00 x_18  = 0.000000 + 5.00 x_19  = 0.500000 + 6.00 x_20  = 1.000000 + 7.00 x_21  = 0.000000 + 3.00 x_22  = 1.000000 + 10.00 x_23  = 0.000000 + 7.00 x_24  = 1.000000 + 8.00 x_25  = 1.000000 <= 65.00
C_5:	 2.00 x_1  = 0.000000 + 4.00 x_2  = 1.000000 + 3.00 x_3  = 1.000000 + 9.00 x_4  = 0.000000 + 9.00 x_5  = 0.000000 + 6.00 x_6  = 1.000000 + 10.00 x_7  = 1.000000 + 4.00 x_8  = 0.000000 + 7.00 x_9  = 1.000000 + 10.00 x_10  = 0.200000 + 5.00 x_11  = 0.000000 + 7.00 x_12  = 0.000000 + 4.00 x_13  = 0.000000 + 9.00 x_14  = 1.000000 + 9.00 x_15  = 0.500000 + 6.00 x_16  = 1.000000 + 3.00 x_17  = 1.000000 + 10.00 x_18  = 0.000000 + 7.00 x_19  = 0.500000 + 6.00 x_20  = 1.000000 + 5.00 x_21  = 0.000000 + 4.00 x_22  = 1.000000 + 9.00 x_23  = 0.000000 + 2.00 x_24  = 1.000000 + 10.00 x_25  = 1.000000 <= 80.00
Solution initial: 104.300000 
Number Constraints Used in Cover:5
GRASP Method!
Number cuts repeat: 0
value: 104.268012
Number Constraints Used in Cover:10
GRASP Method!
Number cuts repeat: 0
value: 104.268012
Number Constraints Used in Cover:18
GRASP Method!
Number cuts repeat: 0
value: 104.268012
Number Constraints Used in Cover:24
GRASP Method!
Number cuts repeat: 0
value: 104.268012
Number Constraints Used in Cover:31
GRASP Method!
Number cuts repeat: 0
value: 104.268012
Number Constraints Used in Cover:39
GRASP Method!
Number cuts repeat: 0
value: 104.268012
Number Constraints Used in Cover:45
GRASP Method!
Number cuts repeat: 0
value: 104.268012
Number Constraints Used in Cover:47
GRASP Method!
Number cuts repeat: 0
value: 104.268012
Number Constraints Used in Cover:49
GRASP Method!
Number cuts repeat: 0
value: 104.268012
Number Constraints Used in Cover:54
GRASP Method!
Number cuts repeat: 0
value: 104.268012
Number Constraints Used in Cover:63
GRASP Method!
Number cuts repeat: 0
value: 104.268012
Number Constraints Used in Cover:67
GRASP Method!
Number cuts repeat: 0
value: 104.268012
Number Constraints Used in Cover:69
GRASP Method!
Number cuts repeat: 0
value: 104.268012
Number Constraints Used in Cover:73
GRASP Method!
Number cuts repeat: 0
value: 104.268012
Number Constraints Used in Cover:80
GRASP Method!
Number cuts repeat: 0
value: 104.268012
Number Constraints Used in Cover:82
GRASP Method!
Number cuts repeat: 0
value: 104.268012
Number Constraints Used in Cover:87
GRASP Method!
Number cuts repeat: 0
value: 104.268012
Number Constraints Used in Cover:92
GRASP Method!
Number cuts repeat: 0
value: 104.268012
Number Constraints Used in Cover:98
GRASP Method!
Number cuts repeat: 0
value: 104.268012
Number Constraints Used in Cover:106
GRASP Method!
Number cuts repeat: 0
value: 104.268012
Number Constraints Used in Cover:110
GRASP Method!
Number cuts repeat: 0
value: 104.268012
Number Constraints Used in Cover:110
GRASP Method!
Number cuts repeat: 0
value: 104.268012
Number Constraints Used in Cover:114
GRASP Method!
Number cuts repeat: 0
value: 104.268012
Number Constraints Used in Cover:123
GRASP Method!
Number cuts repeat: 0
value: 104.268012
Number Constraints Used in Cover:129
GRASP Method!
Number cuts repeat: 0
value: 104.268012
Number Constraints Used in Cover:137
GRASP Method!
Number cuts repeat: 0
value: 104.268012
Number Constraints Used in Cover:140
GRASP Method!
Number cuts repeat: 0
value: 104.268012
Number Constraints Used in Cover:144
GRASP Method!
Number cuts repeat: 0
value: 104.268012
Number Constraints Used in Cover:148
GRASP Method!
Number cuts repeat: 0
value: 104.268012
Number Constraints Used in Cover:153
GRASP Method!
Number cuts repeat: 0
value: 104.268012
Number Constraints Used in Cover:159
GRASP Method!
Number cuts repeat: 0
value: 104.268012
Number Constraints Used in Cover:164
GRASP Method!
Number cuts repeat: 0
value: 104.268012
Number Constraints Used in Cover:165
GRASP Method!
Number cuts repeat: 0
value: 104.268012
Number Constraints Used in Cover:174
GRASP Method!
Number cuts repeat: 0
value: 104.268012
Number Constraints Used in Cover:182
GRASP Method!
Number cuts repeat: 0
value: 104.268012
Number Constraints Used in Cover:183
GRASP Method!
Number cuts repeat: 0
value: 104.268012
Number Constraints Used in Cover:187
GRASP Method!
Number cuts repeat: 0
value: 104.268012
Number Constraints Used in Cover:191
GRASP Method!
Number cuts repeat: 0
value: 104.268012
Number Constraints Used in Cover:193
GRASP Method!
Number cuts repeat: 0
value: 104.258621
Number Constraints Used in Cover:198
GRASP Method!
Number cuts repeat: 0
value: 104.258621
Number Constraints Used in Cover:201
GRASP Method!
Number cuts repeat: 0
value: 104.258621
Number Constraints Used in Cover:203
GRASP Method!
Number cuts repeat: 0
value: 104.258621
Number Constraints Used in Cover:207
GRASP Method!
Number cuts repeat: 0
value: 104.258621
Number Constraints Used in Cover:212
GRASP Method!
Number cuts repeat: 0
value: 104.258621
Number Constraints Used in Cover:213
GRASP Method!
Number cuts repeat: 0
value: 104.258621
Number Constraints Used in Cover:215
GRASP Method!
Number cuts repeat: 0
value: 104.258621
Number Constraints Used in Cover:216
GRASP Method!
Number cuts repeat: 0
value: 104.258621
Number Constraints Used in Cover:222
GRASP Method!
Number cuts repeat: 0
value: 104.258621
Number Constraints Used in Cover:224
GRASP Method!
Number cuts repeat: 0
value: 104.258621
Number Constraints Used in Cover:226
GRASP Method!
Number cuts repeat: 0
value: 104.258621
Number Constraints Used in Cover:228
GRASP Method!
Number cuts repeat: 0
value: 104.258621
Number Constraints Used in Cover:234
GRASP Method!
Number cuts repeat: 0
value: 104.258621
Number Constraints Used in Cover:239
GRASP Method!
Number cuts repeat: 0
value: 104.258621
Number Constraints Used in Cover:244
GRASP Method!
Number cuts repeat: 0
value: 104.258621
Number Constraints Used in Cover:246
GRASP Method!
Number cuts repeat: 0
value: 104.258621
Number Constraints Used in Cover:251
GRASP Method!
Number cuts repeat: 0
value: 104.258621
Number Constraints Used in Cover:253
GRASP Method!
Number cuts repeat: 0
value: 104.258621
Number Constraints Used in Cover:255
GRASP Method!
Number cuts repeat: 0
value: 104.258621
Number Constraints Used in Cover:264
GRASP Method!
Number cuts repeat: 0
value: 104.258621
Number Constraints Used in Cover:269
GRASP Method!
Number cuts repeat: 0
value: 104.258621
Number Constraints Used in Cover:274
GRASP Method!
Number cuts repeat: 0
value: 104.258621
Number Constraints Used in Cover:275
GRASP Method!
Number cuts repeat: 0
value: 104.258621
Number Constraints Used in Cover:283
GRASP Method!
Number cuts repeat: 0
value: 104.258621
Number Constraints Used in Cover:285
GRASP Method!
Number cuts repeat: 0
value: 104.258621
Number Constraints Used in Cover:287
GRASP Method!
Number cuts repeat: 0
value: 104.258621
Number Constraints Used in Cover:293
GRASP Method!
Number cuts repeat: 0
value: 104.258621
Number Constraints Used in Cover:296
GRASP Method!
Number cuts repeat: 0
value: 104.258621
Number Constraints Used in Cover:304
GRASP Method!
Number cuts repeat: 0
value: 104.258621
Number Constraints Used in Cover:304
GRASP Method!
Number cuts repeat: 0
value: 104.258621
Number Constraints Used in Cover:305
GRASP Method!
Number cuts repeat: 0
value: 104.258621
Number Constraints Used in Cover:309
GRASP Method!
Number cuts repeat: 0
value: 104.258621
Number Constraints Used in Cover:313
GRASP Method!
Number cuts repeat: 0
value: 104.258621
Number Constraints Used in Cover:317
GRASP Method!
Number cuts repeat: 0
value: 104.258621
Number Constraints Used in Cover:320
GRASP Method!
Number cuts repeat: 0
value: 104.258621
Number Constraints Used in Cover:326
GRASP Method!
Number cuts repeat: 0
value: 104.258621
Number Constraints Used in Cover:329
GRASP Method!
Number cuts repeat: 0
value: 104.258621
Number Constraints Used in Cover:330
GRASP Method!
Number cuts repeat: 0
value: 104.258621
Number Constraints Used in Cover:330
GRASP Method!
Number cuts repeat: 0
value: 104.258621
Number Constraints Used in Cover:335
GRASP Method!
Number cuts repeat: 0
value: 104.258621
Number Constraints Used in Cover:335
GRASP Method!
Number cuts repeat: 0
value: 104.258621
Number Constraints Used in Cover:335
GRASP Method!
Number cuts repeat: 0
value: 104.258621
Number Constraints Used in Cover:335
GRASP Method!
Number cuts repeat: 0
value: 104.258621
Number Constraints Used in Cover:335
GRASP Method!
Number cuts repeat: 0
value: 104.258621
Number Constraints Used in Cover:336
GRASP Method!
Number cuts repeat: 0
value: 104.258621
Number Constraints Used in Cover:337
GRASP Method!
Number cuts repeat: 0
value: 104.258621
Number Constraints Used in Cover:337
GRASP Method!
Number cuts repeat: 0
value: 104.258621
Number Constraints Used in Cover:338
GRASP Method!
Number cuts repeat: 0
value: 104.258621
Number Constraints Used in Cover:341
GRASP Method!
Number cuts repeat: 0
value: 104.258621
Number Constraints Used in Cover:341
GRASP Method!
Number cuts repeat: 0
value: 104.258621
Number Constraints Used in Cover:343
GRASP Method!
Number cuts repeat: 0
value: 104.258621
Number Constraints Used in Cover:343
GRASP Method!
Number cuts repeat: 0
value: 104.258621
Number Constraints Used in Cover:347
GRASP Method!
Number cuts repeat: 0
value: 104.258621
Number Constraints Used in Cover:351
GRASP Method!
Number cuts repeat: 0
value: 104.258621
Number Constraints Used in Cover:356
GRASP Method!
Number cuts repeat: 0
value: 104.258621
Number Constraints Used in Cover:358
GRASP Method!
Number cuts repeat: 0
value: 104.258621
Number Constraints Used in Cover:359
GRASP Method!
Number cuts repeat: 0
value: 104.258621
Number Constraints Used in Cover:361
GRASP Method!
Number cuts repeat: 0
value: 104.258621
Number Constraints Used in Cover:363
GRASP Method!
Number cuts repeat: 0
value: 104.258621
Number Constraints Used in Cover:365
GRASP Method!
Number cuts repeat: 0
value: 104.258621
Number Constraints Used in Cover:366
GRASP Method!
Number cuts repeat: 0
value: 104.258621
Number Constraints Used in Cover:370
GRASP Method!
Number cuts repeat: 0
value: 104.258621
Number Constraints Used in Cover:373
GRASP Method!
Number cuts repeat: 0
value: 104.258621
Number Constraints Used in Cover:376
GRASP Method!
Number cuts repeat: 0
value: 104.258621
Number Constraints Used in Cover:378
GRASP Method!
Number cuts repeat: 0
value: 104.258621
Number Constraints Used in Cover:378
GRASP Method!
Number cuts repeat: 0
value: 104.258621
Number Constraints Used in Cover:380
GRASP Method!
Number cuts repeat: 0
value: 104.258621
Number Constraints Used in Cover:380
GRASP Method!
Number cuts repeat: 0
value: 104.258621
Number Constraints Used in Cover:382
GRASP Method!
Number cuts repeat: 0
value: 104.258621
Number Constraints Used in Cover:388
GRASP Method!
Number cuts repeat: 0
value: 104.258621
Number Constraints Used in Cover:389
GRASP Method!
Number cuts repeat: 0
value: 104.258621
Number Constraints Used in Cover:389
GRASP Method!
Number cuts repeat: 0
value: 104.258621
Number Constraints Used in Cover:391
GRASP Method!
Number cuts repeat: 0
value: 104.258621
Number Constraints Used in Cover:391
GRASP Method!
Number cuts repeat: 0
value: 104.258621
Number Constraints Used in Cover:391
GRASP Method!
Number cuts repeat: 0
value: 104.258621
Number Constraints Used in Cover:394
GRASP Method!
Number cuts repeat: 0
value: 104.258621
Number Constraints Used in Cover:394
GRASP Method!
Number cuts repeat: 0
value: 104.258621
Number Constraints Used in Cover:396
GRASP Method!
Number cuts repeat: 0
value: 104.258621
Number Constraints Used in Cover:396
GRASP Method!
Number cuts repeat: 0
value: 104.258621
Number Constraints Used in Cover:400
GRASP Method!
Number cuts repeat: 0
value: 104.258621
Number Constraints Used in Cover:404
GRASP Method!
Number cuts repeat: 0
value: 104.258621
Number Constraints Used in Cover:406
GRASP Method!
Number cuts repeat: 0
value: 104.258621
Number Cuts Final: 401
